NAME: tsp30_12
COMMENT: 30-tsp problem (Padberg/Rinaldi)
TYPE: TSP
DIMENSION: 30
EDGE_WEIGHT_TYPE : EUC_2D
NODE_COORD_SECTION
1 5 19
2 26 11
3 18 29
4 8 15
5 3 7
6 30 37
7 16 34
8 20 6
9 36 2
10 3 30
11 1 26
12 13 40
13 1 35
14 32 15
15 11 6
16 20 25
17 7 30
18 36 6
19 24 14
20 38 6
21 29 22
22 38 22
23 3 28
24 10 13
25 28 7
26 8 34
27 39 35
28 29 6
29 23 2
30 10 19
